s td 39 21 60
b 1 25 38
b 2 24 52 57
b 3 3 8 19 38
b 4 1 2 7 8 9 10 17 19 20 23 26 30 31 34 44 51 52 53 54 55 59
b 5 2 7 8 9 10 17 19 20 23 30 31 34 41 44 45 51 52 53 54 55 59
b 6 2 7 8 9 10 17 19 20 30 31 34 38 41 44 45 51 52 53 55 59
b 7 2 4 7 10 17 19 20 30 31 34 38 41 44 45 51 52 53 55 59
b 8 2 4 10 19 29 30 31 34 38 41 44 45 51 52 55 59
b 9 2 4 10 21 29 30 31 34 41 44 45 51 52 55
b 10 2 4 21 29 30 34 39 41 44 45 51 52 55
b 11 2 4 21 29 30 34 35 39 44 45 51 55
b 12 2 15 30 35 45
b 13 29 33 34 35 39 51 55
b 14 29 30 38 56 59
b 15 2 4 19 20 41 44 46 51 53 55
b 16 2 4 20 22 41 44 46
b 17 2 7 8 9 10 16 17 19 20 23 31 34 41 44 45 51 52 53 54 55 59
b 18 7 8 9 10 11 16 17 19 20 23 31 34 41 44 51 52 53 54 55 59
b 19 7 8 9 10 11 16 19 23 31 34 41 44 51 52 53 54 55 57 59
b 20 7 8 9 11 16 19 23 31 34 40 41 44 51 53 54 55 57 59
b 21 7 8 11 16 19 23 31 34 40 41 48 51 53 54 55 57 59
b 22 8 11 14 16 23 31 34 41 48 51 53 54 59
b 23 8 14 16 23 31 36 41 48 53 54 59
b 24 12 23 31 36 41 48
b 25 14 28 51 53
b 26 2 7 9 16 20 23 34 43 44 45 53
b 27 2 13 20 23 43
b 28 1 2 7 8 9 10 17 19 20 23 26 31 32 34 44 51 52 53 54 55 59
b 29 1 7 8 9 10 17 19 20 23 26 31 32 44 49 51 52 53 54 55 59
b 30 1 7 8 9 10 17 19 20 23 26 31 44 49 51 52 53 54 59 60
b 31 9 17 19 26 37 44 52 53 54 59 60
b 32 9 17 19 27 37 44 52 53 54 59
b 33 19 27 42 44 52 54 59
b 34 5 27 42 52 59
b 35 5 6 27 42
b 36 1 7 9 10 17 18 23 31 51 52 59 60
b 37 7 9 10 18 31 51 58 60
b 38 2 7 19 26 32 44 47 53
b 39 2 44 47 50
1 6
2 19
3 6
4 5
4 28
5 6
5 17
6 7
7 8
7 15
8 9
8 14
9 10
10 11
11 12
11 13
15 16
17 18
17 26
18 19
19 20
20 21
21 22
22 23
22 25
23 24
26 27
28 29
28 38
29 30
30 31
30 36
31 32
32 33
33 34
34 35
36 37
38 39
